g3 0 1 0	# problem d7n5R2R6d05d05
 5 7 1 0 2	# vars, constraints, objectives, ranges, eqns
 4 1	# nonlinear constraints, objectives
 0 0	# network constraints: nonlinear, linear
 5 5 5	# nonlinear vars in constraints, objectives, both
 0 0 0 1	# linear network variables; functions; arith, flags
 0 0 0 0 0	# discrete variables: binary, integer, nonlinear (b,c,o)
 29 5	# nonzeros in Jacobian, gradients
 0 0	# max name lengths: constraints, variables
 0 0 0 0 0	# common exprs: b,c,o,c1,o1
b
0 0.91 2.74
0 0.19 2.48
0 0.93 2.37
0 0.98 2.74
0 0.15 2.94
r
2 109.659
2 256.271
2 1481.24
2 3422.36
4 4.929
4 -6.737
2 46.389
C0
o54
8
o2
o2
n6.05
v0
v0
o2
o2
n1.21
v0
v2
o2
o2
n7.08
v0
v3
o2
o2
n3.47
v0
v4
o2
o2
n9.43
v1
v1
o2
o2
n5.98
v1
v4
o2
o2
n0.15
v2
v2
o16
o2
o2
n9.66
v3
v4
C1
o54
25
o2
o2
n7.71
v0
v0
o16
o2
o2
n8.96
v0
v2
o2
o2
n7.31
v0
v3
o2
o2
n1.4
v0
v4
o2
o2
n3.5
v1
v1
o2
o2
n8.06
v1
v4
o2
o2
n4.15
v2
v2
o2
o2
n5.44
v3
v4
o2
o2
o2
n7.24
v0
v0
v0
o16
o2
o2
o2
n9.06
v0
v1
v2
o2
o2
o2
n6.19
v0
v1
v3
o2
o2
o2
n4.22
v0
v2
v3
o16
o2
o2
o2
n9.62
v0
v3
v4
o2
o2
o2
n6.39
v1
v1
v2
o2
o2
o2
n7.09
v1
v1
v3
o2
o2
o2
n5.15
v1
v1
v4
o16
o2
o2
o2
n7.32
v1
v2
v3
o2
o2
o2
n0.86
v1
v2
v4
o2
o2
o2
n0.52
v1
v3
v3
o2
o2
o2
n8.04
v1
v4
v4
o16
o2
o2
o2
n1.34
v2
v2
v2
o2
o2
o2
n4.56
v2
v2
v4
o2
o2
o2
n4.06
v2
v3
v3
o2
o2
o2
n0.66
v3
v3
v3
o2
o2
o2
n6.52
v3
v4
v4
C2
o54
60
o2
o2
n3.92
v0
v0
o2
o2
n7.51
v0
v2
o2
o2
n5.43
v0
v3
o2
o2
n8.44
v0
v4
o2
o2
n8.11
v1
v1
o2
o2
n3.99
v1
v4
o2
o2
n1.92
v2
v2
o2
o2
n6.19
v3
v4
o2
o2
o2
n4.79
v0
v0
v0
o2
o2
o2
n4.42
v0
v1
v2
o2
o2
o2
n2.97
v0
v1
v3
o2
o2
o2
n1.05
v0
v2
v3
o2
o2
o2
n4.16
v0
v3
v4
o2
o2
o2
n2.58
v1
v1
v2
o2
o2
o2
n0.15
v1
v1
v3
o2
o2
o2
n5.27
v1
v1
v4
o2
o2
o2
n0.29
v1
v2
v3
o2
o2
o2
n9.47
v1
v2
v4
o2
o2
o2
n2.58
v1
v3
v3
o2
o2
o2
n1.54
v1
v4
v4
o2
o2
o2
n3.78
v2
v2
v2
o2
o2
o2
n7.58
v2
v2
v4
o2
o2
o2
n5.22
v2
v3
v3
o2
o2
o2
n7.9
v3
v3
v3
o16
o2
o2
o2
n5.76
v3
v4
v4
o2
o2
o2
o2
n6.4
v0
v0
v0
v1
o2
o2
o2
o2
n8.52
v0
v0
v0
v2
o2
o2
o2
o2
n3.84
v0
v0
v0
v4
o2
o2
o2
o2
n3.02
v0
v0
v1
v2
o2
o2
o2
o2
n9.15
v0
v1
v1
v1
o2
o2
o2
o2
n9.14
v0
v1
v1
v3
o2
o2
o2
o2
n7.72
v0
v1
v1
v4
o2
o2
o2
o2
n4.53
v0
v1
v2
v2
o2
o2
o2
o2
n0.84
v0
v1
v2
v4
o2
o2
o2
o2
n2.1
v0
v1
v3
v4
o2
o2
o2
o2
n5.35
v0
v2
v2
v2
o2
o2
o2
o2
n9.05
v0
v2
v3
v3
o2
o2
o2
o2
n7.46
v0
v2
v3
v4
o2
o2
o2
o2
n4.07
v0
v3
v3
v3
o2
o2
o2
o2
n9.93
v0
v3
v3
v4
o2
o2
o2
o2
n4.17
v1
v1
v1
v1
o2
o2
o2
o2
n6.56
v1
v1
v1
v2
o2
o2
o2
o2
n7.93
v1
v1
v1
v3
o2
o2
o2
o2
n3.16
v1
v1
v1
v4
o2
o2
o2
o2
n6.42
v1
v1
v2
v2
o2
o2
o2
o2
n8.95
v1
v1
v2
v3
o2
o2
o2
o2
n8.61
v1
v1
v3
v4
o2
o2
o2
o2
n7.6
v1
v2
v2
v4
o16
o2
o2
o2
o2
n2.75
v1
v2
v3
v3
o16
o2
o2
o2
o2
n1.74
v1
v2
v3
v4
o2
o2
o2
o2
n0.17
v1
v2
v4
v4
o16
o2
o2
o2
o2
n0.33
v1
v3
v3
v3
o2
o2
o2
o2
n3.26
v1
v3
v3
v4
o2
o2
o2
o2
n2.59
v1
v3
v4
v4
o2
o2
o2
o2
n4.06
v2
v2
v2
v3
o2
o2
o2
o2
n7.84
v2
v2
v2
v4
o2
o2
o2
o2
n5.07
v2
v2
v3
v3
o2
o2
o2
o2
n5.2
v2
v4
v4
v4
o16
o2
o2
o2
o2
n8.77
v3
v3
v3
v3
o2
o2
o2
o2
n2.13
v3
v3
v4
v4
C3
o54
126
o2
o2
n2.63
v0
v0
o2
o2
n5.76
v0
v2
o2
o2
n2.29
v0
v3
o2
o2
n3.53
v0
v4
o2
o2
n2.23
v1
v1
o2
o2
n3.64
v1
v4
o2
o2
n2.5
v2
v2
o2
o2
n1.29
v3
v4
o2
o2
o2
n2.9
v0
v0
v0
o2
o2
o2
n1.44
v0
v1
v2
o2
o2
o2
n9.22
v0
v1
v3
o2
o2
o2
n7.57
v0
v2
v3
o16
o2
o2
o2
n5.01
v0
v3
v4
o2
o2
o2
n9.96
v1
v1
v2
o2
o2
o2
n7.84
v1
v1
v3
o2
o2
o2
n4.74
v1
v1
v4
o2
o2
o2
n4.25
v1
v2
v3
o2
o2
o2
n0.67
v1
v2
v4
o2
o2
o2
n2.32
v1
v3
v3
o2
o2
o2
n4.83
v1
v4
v4
o2
o2
o2
n5.97
v2
v2
v2
o2
o2
o2
n4.04
v2
v2
v4
o2
o2
o2
n0.1
v2
v3
v3
o16
o2
o2
o2
n3.5
v3
v3
v3
o2
o2
o2
n0.58
v3
v4
v4
o2
o2
o2
o2
n9.11
v0
v0
v0
v1
o2
o2
o2
o2
n8.18
v0
v0
v0
v2
o2
o2
o2
o2
n5.24
v0
v0
v0
v4
o2
o2
o2
o2
n0.42
v0
v0
v1
v2
o2
o2
o2
o2
n4.3
v0
v1
v1
v1
o2
o2
o2
o2
n0.57
v0
v1
v1
v3
o2
o2
o2
o2
n9.81
v0
v1
v1
v4
o2
o2
o2
o2
n7.68
v0
v1
v2
v2
o2
o2
o2
o2
n9.49
v0
v1
v2
v4
o2
o2
o2
o2
n6.85
v0
v1
v3
v4
o2
o2
o2
o2
n9.91
v0
v2
v2
v2
o2
o2
o2
o2
n3.7
v0
v2
v3
v3
o2
o2
o2
o2
n9.32
v0
v2
v3
v4
o2
o2
o2
o2
n2.12
v0
v3
v3
v3
o2
o2
o2
o2
n0.16
v0
v3
v3
v4
o2
o2
o2
o2
n9.47
v1
v1
v1
v1
o2
o2
o2
o2
n7.81
v1
v1
v1
v2
o2
o2
o2
o2
n8.09
v1
v1
v1
v3
o2
o2
o2
o2
n7.27
v1
v1
v1
v4
o16
o2
o2
o2
o2
n7.39
v1
v1
v2
v2
o2
o2
o2
o2
n4.11
v1
v1
v2
v3
o2
o2
o2
o2
n5.47
v1
v1
v3
v4
o2
o2
o2
o2
n1.5
v1
v2
v2
v4
o2
o2
o2
o2
n4.28
v1
v2
v3
v3
o16
o2
o2
o2
o2
n9.64
v1
v2
v3
v4
o2
o2
o2
o2
n7.61
v1
v2
v4
v4
o2
o2
o2
o2
n9.37
v1
v3
v3
v3
o2
o2
o2
o2
n5.63
v1
v3
v3
v4
o2
o2
o2
o2
n6.36
v1
v3
v4
v4
o16
o2
o2
o2
o2
n5.39
v2
v2
v2
v3
o2
o2
o2
o2
n7.55
v2
v2
v2
v4
o2
o2
o2
o2
n1.09
v2
v2
v3
v3
o2
o2
o2
o2
n6.35
v2
v4
v4
v4
o16
o2
o2
o2
o2
n3.33
v3
v3
v3
v3
o2
o2
o2
o2
n8.13
v3
v3
v4
v4
o2
o2
o2
o2
o2
n1.29
v0
v0
v0
v0
v0
o2
o2
o2
o2
o2
n2.66
v0
v0
v0
v0
v1
o2
o2
o2
o2
o2
n7
v0
v0
v0
v1
v1
o2
o2
o2
o2
o2
n5
v0
v0
v0
v1
v3
o16
o2
o2
o2
o2
o2
n5.76
v0
v0
v0
v1
v4
o2
o2
o2
o2
o2
n1.35
v0
v0
v0
v2
v2
o2
o2
o2
o2
o2
n1.64
v0
v0
v0
v2
v3
o2
o2
o2
o2
o2
n1.58
v0
v0
v0
v3
v3
o16
o2
o2
o2
o2
o2
n2.28
v0
v0
v0
v3
v4
o2
o2
o2
o2
o2
n4.82
v0
v0
v0
v4
v4
o2
o2
o2
o2
o2
n2.02
v0
v0
v1
v1
v3
o16
o2
o2
o2
o2
o2
n9.77
v0
v0
v1
v1
v4
o2
o2
o2
o2
o2
n7.31
v0
v0
v1
v2
v2
o2
o2
o2
o2
o2
n6.36
v0
v0
v1
v3
v3
o2
o2
o2
o2
o2
n3.61
v0
v0
v2
v2
v4
o2
o2
o2
o2
o2
n0.12
v0
v0
v3
v4
v4
o2
o2
o2
o2
o2
n7.78
v0
v0
v4
v4
v4
o2
o2
o2
o2
o2
n6.03
v0
v1
v1
v1
v1
o2
o2
o2
o2
o2
n4.96
v0
v1
v1
v1
v3
o2
o2
o2
o2
o2
n3.3
v0
v1
v1
v1
v4
o2
o2
o2
o2
o2
n4.12
v0
v1
v1
v2
v2
o2
o2
o2
o2
o2
n7.66
v0
v1
v1
v2
v4
o2
o2
o2
o2
o2
n1.29
v0
v1
v1
v3
v3
o2
o2
o2
o2
o2
n2.76
v0
v1
v1
v4
v4
o2
o2
o2
o2
o2
n4.48
v0
v1
v2
v2
v2
o2
o2
o2
o2
o2
n7.2
v0
v1
v2
v2
v4
o2
o2
o2
o2
o2
n9.44
v0
v1
v3
v4
v4
o2
o2
o2
o2
o2
n8.73
v0
v1
v4
v4
v4
o16
o2
o2
o2
o2
o2
n0.26
v0
v2
v2
v2
v3
o2
o2
o2
o2
o2
n2.3
v0
v2
v2
v3
v4
o2
o2
o2
o2
o2
n3.94
v0
v2
v2
v4
v4
o2
o2
o2
o2
o2
n3.36
v0
v2
v3
v3
v4
o2
o2
o2
o2
o2
n2.86
v0
v2
v3
v4
v4
o2
o2
o2
o2
o2
n3.12
v0
v2
v4
v4
v4
o2
o2
o2
o2
o2
n4.42
v0
v3
v3
v3
v3
o16
o2
o2
o2
o2
o2
n7.21
v0
v3
v3
v3
v4
o2
o2
o2
o2
o2
n1.67
v0
v3
v3
v4
v4
o2
o2
o2
o2
o2
n4.41
v0
v3
v4
v4
v4
o2
o2
o2
o2
o2
n4.24
v0
v4
v4
v4
v4
o2
o2
o2
o2
o2
n6.92
v1
v1
v1
v1
v1
o2
o2
o2
o2
o2
n3.39
v1
v1
v1
v1
v2
o2
o2
o2
o2
o2
n8.8
v1
v1
v1
v1
v4
o2
o2
o2
o2
o2
n0.41
v1
v1
v1
v2
v3
o2
o2
o2
o2
o2
n4.14
v1
v1
v1
v3
v3
o2
o2
o2
o2
o2
n2.44
v1
v1
v1
v3
v4
o2
o2
o2
o2
o2
n1.41
v1
v1
v2
v2
v2
o2
o2
o2
o2
o2
n4.63
v1
v1
v2
v2
v3
o2
o2
o2
o2
o2
n5.77
v1
v1
v2
v3
v3
o2
o2
o2
o2
o2
n2.82
v1
v1
v2
v3
v4
o2
o2
o2
o2
o2
n5.65
v1
v1
v2
v4
v4
o16
o2
o2
o2
o2
o2
n5.78
v1
v1
v3
v3
v3
o16
o2
o2
o2
o2
o2
n5.37
v1
v1
v3
v4
v4
o2
o2
o2
o2
o2
n1.05
v1
v1
v4
v4
v4
o2
o2
o2
o2
o2
n0.28
v1
v2
v2
v2
v3
o2
o2
o2
o2
o2
n3.47
v1
v2
v3
v3
v3
o2
o2
o2
o2
o2
n5.88
v1
v2
v3
v4
v4
o2
o2
o2
o2
o2
n0.44
v1
v2
v4
v4
v4
o2
o2
o2
o2
o2
n7.75
v1
v3
v4
v4
v4
o2
o2
o2
o2
o2
n2.98
v2
v2
v2
v2
v2
o2
o2
o2
o2
o2
n3.53
v2
v2
v2
v2
v3
o2
o2
o2
o2
o2
n6.63
v2
v2
v2
v3
v4
o16
o2
o2
o2
o2
o2
n3.78
v2
v4
v4
v4
v4
o16
o2
o2
o2
o2
o2
n1.34
v3
v3
v3
v3
v3
o2
o2
o2
o2
o2
n3.08
v3
v3
v4
v4
v4
o2
o2
o2
o2
o2
n4.29
v3
v4
v4
v4
v4
o2
o2
o2
o2
o2
n8.13
v4
v4
v4
v4
v4
C4
n0
C5
n0
C6
n0
O0 0
o54
392
o2
o2
n3.94
v0
v0
o16
o2
o2
n8.24
v0
v2
o2
o2
n1.98
v0
v3
o2
o2
n3.5
v0
v4
o16
o2
o2
n3.39
v1
v1
o2
o2
n9.12
v1
v4
o2
o2
n0.5
v2
v2
o2
o2
n9.92
v3
v4
o16
o2
o2
o2
n9.89
v0
v0
v0
o2
o2
o2
n3.24
v0
v1
v2
o2
o2
o2
n1.51
v0
v1
v3
o2
o2
o2
n3.93
v0
v2
v3
o16
o2
o2
o2
n6.17
v0
v3
v4
o2
o2
o2
n4.03
v1
v1
v2
o2
o2
o2
n5.36
v1
v1
v3
o16
o2
o2
o2
n3.8
v1
v1
v4
o2
o2
o2
n2.52
v1
v2
v3
o2
o2
o2
n5.47
v1
v2
v4
o2
o2
o2
n9.76
v1
v3
v3
o2
o2
o2
n6.44
v1
v4
v4
o2
o2
o2
n9.19
v2
v2
v2
o2
o2
o2
n3.5
v2
v2
v4
o16
o2
o2
o2
n2.77
v2
v3
v3
o2
o2
o2
n4.42
v3
v3
v3
o2
o2
o2
n9.97
v3
v4
v4
o2
o2
o2
o2
n8.77
v0
v0
v0
v1
o2
o2
o2
o2
n7.05
v0
v0
v0
v2
o2
o2
o2
o2
n4.29
v0
v0
v0
v4
o2
o2
o2
o2
n7.15
v0
v0
v1
v2
o2
o2
o2
o2
n0.52
v0
v1
v1
v1
o16
o2
o2
o2
o2
n5.37
v0
v1
v1
v3
o2
o2
o2
o2
n6.18
v0
v1
v1
v4
o2
o2
o2
o2
n7.59
v0
v1
v2
v2
o2
o2
o2
o2
n1.86
v0
v1
v2
v4
o2
o2
o2
o2
n7.41
v0
v1
v3
v4
o2
o2
o2
o2
n4.62
v0
v2
v2
v2
o2
o2
o2
o2
n0.11
v0
v2
v3
v3
o2
o2
o2
o2
n6.1
v0
v2
v3
v4
o2
o2
o2
o2
n7.7
v0
v3
v3
v3
o2
o2
o2
o2
n0.56
v0
v3
v3
v4
o2
o2
o2
o2
n4.17
v1
v1
v1
v1
o2
o2
o2
o2
n4.56
v1
v1
v1
v2
o2
o2
o2
o2
n4.94
v1
v1
v1
v3
o2
o2
o2
o2
n4.77
v1
v1
v1
v4
o16
o2
o2
o2
o2
n9.68
v1
v1
v2
v2
o2
o2
o2
o2
n5.45
v1
v1
v2
v3
o2
o2
o2
o2
n2.45
v1
v1
v3
v4
o16
o2
o2
o2
o2
n2.32
v1
v2
v2
v4
o2
o2
o2
o2
n8.21
v1
v2
v3
v3
o2
o2
o2
o2
n4.08
v1
v2
v3
v4
o2
o2
o2
o2
n9.97
v1
v2
v4
v4
o16
o2
o2
o2
o2
n8.49
v1
v3
v3
v3
o2
o2
o2
o2
n5.32
v1
v3
v3
v4
o2
o2
o2
o2
n4.3
v1
v3
v4
v4
o2
o2
o2
o2
n6.68
v2
v2
v2
v3
o16
o2
o2
o2
o2
n5.77
v2
v2
v2
v4
o2
o2
o2
o2
n4.2
v2
v2
v3
v3
o2
o2
o2
o2
n1.22
v2
v4
v4
v4
o2
o2
o2
o2
n5.39
v3
v3
v3
v3
o16
o2
o2
o2
o2
n2.23
v3
v3
v4
v4
o2
o2
o2
o2
o2
n0.56
v0
v0
v0
v0
v0
o2
o2
o2
o2
o2
n5.1
v0
v0
v0
v0
v1
o2
o2
o2
o2
o2
n8.12
v0
v0
v0
v1
v1
o2
o2
o2
o2
o2
n1.04
v0
v0
v0
v1
v3
o2
o2
o2
o2
o2
n8.78
v0
v0
v0
v1
v4
o2
o2
o2
o2
o2
n6.63
v0
v0
v0
v2
v2
o2
o2
o2
o2
o2
n2.82
v0
v0
v0
v2
v3
o2
o2
o2
o2
o2
n1.33
v0
v0
v0
v3
v3
o2
o2
o2
o2
o2
n9.27
v0
v0
v0
v3
v4
o2
o2
o2
o2
o2
n3.3
v0
v0
v0
v4
v4
o2
o2
o2
o2
o2
n1.38
v0
v0
v1
v1
v3
o2
o2
o2
o2
o2
n0.27
v0
v0
v1
v1
v4
o2
o2
o2
o2
o2
n7.11
v0
v0
v1
v2
v2
o2
o2
o2
o2
o2
n7.11
v0
v0
v1
v3
v3
o2
o2
o2
o2
o2
n8.92
v0
v0
v2
v2
v4
o2
o2
o2
o2
o2
n6.35
v0
v0
v3
v4
v4
o2
o2
o2
o2
o2
n1.91
v0
v0
v4
v4
v4
o2
o2
o2
o2
o2
n3.56
v0
v1
v1
v1
v1
o2
o2
o2
o2
o2
n4.24
v0
v1
v1
v1
v3
o2
o2
o2
o2
o2
n3.96
v0
v1
v1
v1
v4
o2
o2
o2
o2
o2
n9
v0
v1
v1
v2
v2
o2
o2
o2
o2
o2
n1.8
v0
v1
v1
v2
v4
o2
o2
o2
o2
o2
n1.62
v0
v1
v1
v3
v3
o2
o2
o2
o2
o2
n9.23
v0
v1
v1
v4
v4
o2
o2
o2
o2
o2
n1.75
v0
v1
v2
v2
v2
o2
o2
o2
o2
o2
n6.08
v0
v1
v2
v2
v4
o2
o2
o2
o2
o2
n3.83
v0
v1
v3
v4
v4
o2
o2
o2
o2
o2
n7.11
v0
v1
v4
v4
v4
o2
o2
o2
o2
o2
n5.25
v0
v2
v2
v2
v3
o2
o2
o2
o2
o2
n8.45
v0
v2
v2
v3
v4
o2
o2
o2
o2
o2
n6.36
v0
v2
v2
v4
v4
o2
o2
o2
o2
o2
n9.63
v0
v2
v3
v3
v4
o2
o2
o2
o2
o2
n1.16
v0
v2
v3
v4
v4
o2
o2
o2
o2
o2
n2.74
v0
v2
v4
v4
v4
o2
o2
o2
o2
o2
n2.96
v0
v3
v3
v3
v3
o2
o2
o2
o2
o2
n5.54
v0
v3
v3
v3
v4
o2
o2
o2
o2
o2
n3.87
v0
v3
v3
v4
v4
o2
o2
o2
o2
o2
n9.7
v0
v3
v4
v4
v4
o2
o2
o2
o2
o2
n2.36
v0
v4
v4
v4
v4
o2
o2
o2
o2
o2
n1.09
v1
v1
v1
v1
v1
o2
o2
o2
o2
o2
n7.84
v1
v1
v1
v1
v2
o2
o2
o2
o2
o2
n3.46
v1
v1
v1
v1
v4
o16
o2
o2
o2
o2
o2
n6.33
v1
v1
v1
v2
v3
o16
o2
o2
o2
o2
o2
n2.12
v1
v1
v1
v3
v3
o2
o2
o2
o2
o2
n6.3
v1
v1
v1
v3
v4
o2
o2
o2
o2
o2
n9.26
v1
v1
v2
v2
v2
o2
o2
o2
o2
o2
n8.86
v1
v1
v2
v2
v3
o16
o2
o2
o2
o2
o2
n7.37
v1
v1
v2
v3
v3
o2
o2
o2
o2
o2
n1.07
v1
v1
v2
v3
v4
o2
o2
o2
o2
o2
n2.36
v1
v1
v2
v4
v4
o2
o2
o2
o2
o2
n6.76
v1
v1
v3
v3
v3
o16
o2
o2
o2
o2
o2
n3.03
v1
v1
v3
v4
v4
o2
o2
o2
o2
o2
n3.72
v1
v1
v4
v4
v4
o2
o2
o2
o2
o2
n8.25
v1
v2
v2
v2
v3
o2
o2
o2
o2
o2
n1.36
v1
v2
v3
v3
v3
o2
o2
o2
o2
o2
n8.62
v1
v2
v3
v4
v4
o2
o2
o2
o2
o2
n7.96
v1
v2
v4
v4
v4
o2
o2
o2
o2
o2
n4.07
v1
v3
v4
v4
v4
o2
o2
o2
o2
o2
n1.51
v2
v2
v2
v2
v2
o2
o2
o2
o2
o2
n3.99
v2
v2
v2
v2
v3
o2
o2
o2
o2
o2
n3.24
v2
v2
v2
v3
v4
o2
o2
o2
o2
o2
n1.36
v2
v4
v4
v4
v4
o2
o2
o2
o2
o2
n7.88
v3
v3
v3
v3
v3
o2
o2
o2
o2
o2
n7.68
v3
v3
v4
v4
v4
o16
o2
o2
o2
o2
o2
n9.69
v3
v4
v4
v4
v4
o16
o2
o2
o2
o2
o2
n9.95
v4
v4
v4
v4
v4
o2
o2
o2
o2
o2
o2
n8.43
v0
v0
v0
v0
v0
v0
o2
o2
o2
o2
o2
o2
n6.51
v0
v0
v0
v0
v0
v1
o2
o2
o2
o2
o2
o2
n4.19
v0
v0
v0
v0
v0
v2
o2
o2
o2
o2
o2
o2
n3.18
v0
v0
v0
v0
v0
v3
o2
o2
o2
o2
o2
o2
n5.21
v0
v0
v0
v0
v0
v4
o2
o2
o2
o2
o2
o2
n6.33
v0
v0
v0
v0
v1
v1
o2
o2
o2
o2
o2
o2
n7.8
v0
v0
v0
v0
v1
v3
o2
o2
o2
o2
o2
o2
n4.35
v0
v0
v0
v0
v1
v4
o2
o2
o2
o2
o2
o2
n2.31
v0
v0
v0
v0
v2
v2
o2
o2
o2
o2
o2
o2
n4.17
v0
v0
v0
v0
v2
v3
o2
o2
o2
o2
o2
o2
n4.36
v0
v0
v0
v0
v2
v4
o2
o2
o2
o2
o2
o2
n4.4
v0
v0
v0
v0
v3
v3
o16
o2
o2
o2
o2
o2
o2
n5.18
v0
v0
v0
v0
v4
v4
o2
o2
o2
o2
o2
o2
n1.51
v0
v0
v0
v1
v1
v3
o2
o2
o2
o2
o2
o2
n0.39
v0
v0
v0
v1
v2
v2
o2
o2
o2
o2
o2
o2
n0.85
v0
v0
v0
v1
v3
v4
o2
o2
o2
o2
o2
o2
n1.07
v0
v0
v0
v2
v2
v2
o2
o2
o2
o2
o2
o2
n8.85
v0
v0
v0
v2
v2
v4
o2
o2
o2
o2
o2
o2
n6.23
v0
v0
v0
v2
v3
v4
o2
o2
o2
o2
o2
o2
n8.05
v0
v0
v0
v2
v4
v4
o2
o2
o2
o2
o2
o2
n0.85
v0
v0
v0
v3
v3
v4
o2
o2
o2
o2
o2
o2
n1.58
v0
v0
v0
v3
v4
v4
o2
o2
o2
o2
o2
o2
n8.4
v0
v0
v1
v1
v1
v3
o2
o2
o2
o2
o2
o2
n8.54
v0
v0
v1
v1
v1
v4
o2
o2
o2
o2
o2
o2
n2
v0
v0
v1
v1
v2
v2
o2
o2
o2
o2
o2
o2
n6.97
v0
v0
v1
v1
v2
v3
o2
o2
o2
o2
o2
o2
n3.26
v0
v0
v1
v1
v2
v4
o2
o2
o2
o2
o2
o2
n5.82
v0
v0
v1
v1
v3
v3
o2
o2
o2
o2
o2
o2
n2.84
v0
v0
v1
v2
v2
v4
o2
o2
o2
o2
o2
o2
n2.58
v0
v0
v1
v2
v3
v3
o2
o2
o2
o2
o2
o2
n1.86
v0
v0
v1
v2
v3
v4
o2
o2
o2
o2
o2
o2
n8.23
v0
v0
v1
v2
v4
v4
o2
o2
o2
o2
o2
o2
n8.07
v0
v0
v1
v3
v3
v3
o2
o2
o2
o2
o2
o2
n5.76
v0
v0
v1
v3
v3
v4
o2
o2
o2
o2
o2
o2
n6.1
v0
v0
v1
v3
v4
v4
o2
o2
o2
o2
o2
o2
n4.21
v0
v0
v1
v4
v4
v4
o2
o2
o2
o2
o2
o2
n5.52
v0
v0
v2
v2
v2
v3
o16
o2
o2
o2
o2
o2
o2
n4.5
v0
v0
v2
v2
v4
v4
o2
o2
o2
o2
o2
o2
n6.11
v0
v0
v2
v3
v3
v3
o2
o2
o2
o2
o2
o2
n8.72
v0
v0
v2
v3
v3
v4
o2
o2
o2
o2
o2
o2
n4.14
v0
v0
v2
v4
v4
v4
o2
o2
o2
o2
o2
o2
n9.49
v0
v0
v3
v3
v4
v4
o16
o2
o2
o2
o2
o2
o2
n8.86
v0
v0
v4
v4
v4
v4
o2
o2
o2
o2
o2
o2
n0.89
v0
v1
v1
v1
v1
v1
o2
o2
o2
o2
o2
o2
n3.27
v0
v1
v1
v1
v1
v2
o2
o2
o2
o2
o2
o2
n7.47
v0
v1
v1
v1
v2
v2
o2
o2
o2
o2
o2
o2
n8.09
v0
v1
v1
v1
v2
v3
o2
o2
o2
o2
o2
o2
n3.04
v0
v1
v1
v2
v3
v4
o2
o2
o2
o2
o2
o2
n3.18
v0
v1
v2
v2
v2
v2
o2
o2
o2
o2
o2
o2
n5.74
v0
v1
v2
v2
v2
v3
o2
o2
o2
o2
o2
o2
n5.37
v0
v1
v2
v2
v2
v4
o2
o2
o2
o2
o2
o2
n0.84
v0
v1
v2
v2
v3
v3
o2
o2
o2
o2
o2
o2
n6.76
v0
v1
v2
v2
v3
v4
o2
o2
o2
o2
o2
o2
n8.06
v0
v1
v2
v2
v4
v4
o2
o2
o2
o2
o2
o2
n2.57
v0
v1
v2
v3
v3
v4
o2
o2
o2
o2
o2
o2
n4.74
v0
v1
v3
v3
v3
v3
o2
o2
o2
o2
o2
o2
n2.6
v0
v1
v3
v3
v3
v4
o2
o2
o2
o2
o2
o2
n1.64
v0
v1
v4
v4
v4
v4
o2
o2
o2
o2
o2
o2
n5.4
v0
v2
v2
v2
v2
v3
o2
o2
o2
o2
o2
o2
n2.69
v0
v2
v2
v2
v3
v3
o2
o2
o2
o2
o2
o2
n9.17
v0
v2
v2
v3
v3
v4
o16
o2
o2
o2
o2
o2
o2
n5.52
v0
v2
v2
v3
v4
v4
o2
o2
o2
o2
o2
o2
n8.39
v0
v2
v4
v4
v4
v4
o2
o2
o2
o2
o2
o2
n4.08
v0
v3
v3
v3
v3
v3
o2
o2
o2
o2
o2
o2
n0.42
v0
v3
v3
v3
v3
v4
o2
o2
o2
o2
o2
o2
n0.12
v0
v3
v3
v4
v4
v4
o2
o2
o2
o2
o2
o2
n0.94
v0
v3
v4
v4
v4
v4
o2
o2
o2
o2
o2
o2
n4.92
v0
v4
v4
v4
v4
v4
o16
o2
o2
o2
o2
o2
o2
n2.45
v1
v1
v1
v1
v1
v2
o2
o2
o2
o2
o2
o2
n8.03
v1
v1
v1
v1
v1
v3
o2
o2
o2
o2
o2
o2
n4.74
v1
v1
v1
v1
v2
v2
o2
o2
o2
o2
o2
o2
n4.31
v1
v1
v1
v1
v2
v4
o2
o2
o2
o2
o2
o2
n1.57
v1
v1
v1
v1
v4
v4
o2
o2
o2
o2
o2
o2
n6.15
v1
v1
v1
v2
v2
v3
o2
o2
o2
o2
o2
o2
n2.42
v1
v1
v1
v2
v2
v4
o2
o2
o2
o2
o2
o2
n2.12
v1
v1
v1
v3
v3
v3
o2
o2
o2
o2
o2
o2
n3.56
v1
v1
v1
v3
v4
v4
o2
o2
o2
o2
o2
o2
n8.93
v1
v1
v2
v2
v2
v2
o2
o2
o2
o2
o2
o2
n7.39
v1
v1
v2
v2
v2
v4
o2
o2
o2
o2
o2
o2
n7.94
v1
v1
v2
v2
v3
v3
o16
o2
o2
o2
o2
o2
o2
n4.14
v1
v1
v2
v2
v3
v4
o2
o2
o2
o2
o2
o2
n3.02
v1
v1
v2
v3
v3
v3
o2
o2
o2
o2
o2
o2
n5
v1
v1
v2
v4
v4
v4
o16
o2
o2
o2
o2
o2
o2
n1.25
v1
v2
v2
v2
v4
v4
o2
o2
o2
o2
o2
o2
n0.75
v1
v2
v2
v3
v3
v3
o2
o2
o2
o2
o2
o2
n3
v1
v2
v2
v3
v3
v4
o2
o2
o2
o2
o2
o2
n4.92
v1
v2
v2
v4
v4
v4
o2
o2
o2
o2
o2
o2
n2.93
v1
v2
v3
v3
v3
v4
o16
o2
o2
o2
o2
o2
o2
n5.57
v1
v2
v3
v3
v4
v4
o2
o2
o2
o2
o2
o2
n8.55
v1
v2
v3
v4
v4
v4
o2
o2
o2
o2
o2
o2
n4.77
v1
v3
v3
v3
v3
v4
o16
o2
o2
o2
o2
o2
o2
n7.88
v1
v3
v3
v4
v4
v4
o2
o2
o2
o2
o2
o2
n9.77
v1
v3
v4
v4
v4
v4
o2
o2
o2
o2
o2
o2
n2.69
v2
v2
v2
v2
v2
v2
o2
o2
o2
o2
o2
o2
n5.01
v2
v2
v2
v2
v3
v4
o16
o2
o2
o2
o2
o2
o2
n9.01
v2
v2
v2
v2
v4
v4
o2
o2
o2
o2
o2
o2
n9
v2
v2
v3
v3
v3
v3
o2
o2
o2
o2
o2
o2
n1.39
v2
v2
v3
v3
v3
v4
o16
o2
o2
o2
o2
o2
o2
n5.06
v2
v2
v3
v3
v4
v4
o2
o2
o2
o2
o2
o2
n2.44
v2
v3
v3
v3
v4
v4
o2
o2
o2
o2
o2
o2
n0.16
v2
v3
v3
v4
v4
v4
o2
o2
o2
o2
o2
o2
n4.37
v2
v3
v4
v4
v4
v4
o2
o2
o2
o2
o2
o2
n0.68
v3
v3
v3
v3
v3
v4
o2
o2
o2
o2
o2
o2
n3.9
v3
v3
v3
v3
v4
v4
o2
o2
o2
o2
o2
o2
n9.41
v3
v3
v4
v4
v4
v4
o2
o2
o2
o2
o2
o2
n7.2
v4
v4
v4
v4
v4
v4
o2
o2
o2
o2
o2
o2
o2
n2.63
v0
v0
v0
v0
v0
v0
v3
o2
o2
o2
o2
o2
o2
o2
n6.48
v0
v0
v0
v0
v0
v0
v4
o2
o2
o2
o2
o2
o2
o2
n1.45
v0
v0
v0
v0
v0
v1
v2
o2
o2
o2
o2
o2
o2
o2
n4.6
v0
v0
v0
v0
v0
v1
v4
o2
o2
o2
o2
o2
o2
o2
n6.51
v0
v0
v0
v0
v0
v2
v2
o2
o2
o2
o2
o2
o2
o2
n9.53
v0
v0
v0
v0
v0
v2
v4
o2
o2
o2
o2
o2
o2
o2
n9.97
v0
v0
v0
v0
v0
v3
v4
o2
o2
o2
o2
o2
o2
o2
n4.99
v0
v0
v0
v0
v1
v1
v1
o2
o2
o2
o2
o2
o2
o2
n3.95
v0
v0
v0
v0
v1
v1
v3
o2
o2
o2
o2
o2
o2
o2
n8.9
v0
v0
v0
v0
v1
v2
v4
o2
o2
o2
o2
o2
o2
o2
n9.47
v0
v0
v0
v0
v1
v4
v4
o2
o2
o2
o2
o2
o2
o2
n6.35
v0
v0
v0
v0
v2
v2
v2
o2
o2
o2
o2
o2
o2
o2
n4.93
v0
v0
v0
v0
v2
v2
v4
o2
o2
o2
o2
o2
o2
o2
n8.35
v0
v0
v0
v0
v2
v3
v3
o16
o2
o2
o2
o2
o2
o2
o2
n8.22
v0
v0
v0
v0
v3
v3
v3
o2
o2
o2
o2
o2
o2
o2
n3.27
v0
v0
v0
v0
v4
v4
v4
o16
o2
o2
o2
o2
o2
o2
o2
n1.47
v0
v0
v0
v1
v1
v1
v1
o2
o2
o2
o2
o2
o2
o2
n2.25
v0
v0
v0
v1
v1
v1
v4
o2
o2
o2
o2
o2
o2
o2
n2.55
v0
v0
v0
v1
v1
v2
v4
o2
o2
o2
o2
o2
o2
o2
n5.28
v0
v0
v0
v1
v2
v2
v2
o2
o2
o2
o2
o2
o2
o2
n2.45
v0
v0
v0
v1
v2
v2
v4
o2
o2
o2
o2
o2
o2
o2
n9.53
v0
v0
v0
v1
v2
v3
v3
o16
o2
o2
o2
o2
o2
o2
o2
n2.35
v0
v0
v0
v1
v2
v3
v4
o2
o2
o2
o2
o2
o2
o2
n6.39
v0
v0
v0
v1
v2
v4
v4
o16
o2
o2
o2
o2
o2
o2
o2
n9.81
v0
v0
v0
v1
v3
v3
v4
o2
o2
o2
o2
o2
o2
o2
n8.89
v0
v0
v0
v1
v4
v4
v4
o2
o2
o2
o2
o2
o2
o2
n7.81
v0
v0
v0
v2
v2
v2
v4
o2
o2
o2
o2
o2
o2
o2
n5.96
v0
v0
v0
v2
v2
v3
v3
o2
o2
o2
o2
o2
o2
o2
n5.89
v0
v0
v0
v2
v2
v3
v4
o2
o2
o2
o2
o2
o2
o2
n5.22
v0
v0
v0
v2
v3
v3
v3
o2
o2
o2
o2
o2
o2
o2
n7.44
v0
v0
v0
v3
v3
v3
v3
o2
o2
o2
o2
o2
o2
o2
n0.73
v0
v0
v0
v3
v3
v3
v4
o2
o2
o2
o2
o2
o2
o2
n2.08
v0
v0
v0
v4
v4
v4
v4
o2
o2
o2
o2
o2
o2
o2
n7.33
v0
v0
v1
v1
v1
v1
v1
o2
o2
o2
o2
o2
o2
o2
n7.35
v0
v0
v1
v1
v1
v1
v2
o2
o2
o2
o2
o2
o2
o2
n8.15
v0
v0
v1
v1
v1
v1
v4
o2
o2
o2
o2
o2
o2
o2
n8.69
v0
v0
v1
v1
v1
v2
v3
o2
o2
o2
o2
o2
o2
o2
n6.84
v0
v0
v1
v1
v1
v2
v4
o2
o2
o2
o2
o2
o2
o2
n1.73
v0
v0
v1
v1
v1
v3
v4
o2
o2
o2
o2
o2
o2
o2
n0.98
v0
v0
v1
v1
v2
v2
v3
o2
o2
o2
o2
o2
o2
o2
n6.08
v0
v0
v1
v1
v2
v3
v3
o2
o2
o2
o2
o2
o2
o2
n8.43
v0
v0
v1
v1
v2
v3
v4
o2
o2
o2
o2
o2
o2
o2
n4.59
v0
v0
v1
v1
v2
v4
v4
o2
o2
o2
o2
o2
o2
o2
n3.04
v0
v0
v1
v1
v3
v4
v4
o2
o2
o2
o2
o2
o2
o2
n7.08
v0
v0
v1
v2
v2
v2
v3
o2
o2
o2
o2
o2
o2
o2
n1.26
v0
v0
v1
v2
v2
v3
v3
o2
o2
o2
o2
o2
o2
o2
n2.83
v0
v0
v1
v2
v2
v3
v4
o2
o2
o2
o2
o2
o2
o2
n6.37
v0
v0
v1
v2
v3
v3
v3
o2
o2
o2
o2
o2
o2
o2
n0.58
v0
v0
v1
v2
v3
v3
v4
o2
o2
o2
o2
o2
o2
o2
n1.68
v0
v0
v1
v2
v3
v4
v4
o2
o2
o2
o2
o2
o2
o2
n0.43
v0
v0
v1
v2
v4
v4
v4
o16
o2
o2
o2
o2
o2
o2
o2
n9.47
v0
v0
v1
v3
v3
v3
v3
o16
o2
o2
o2
o2
o2
o2
o2
n6.42
v0
v0
v2
v2
v2
v2
v3
o2
o2
o2
o2
o2
o2
o2
n7.13
v0
v0
v2
v2
v2
v3
v3
o2
o2
o2
o2
o2
o2
o2
n4.01
v0
v0
v2
v2
v2
v3
v4
o2
o2
o2
o2
o2
o2
o2
n6.94
v0
v0
v2
v2
v3
v3
v3
o2
o2
o2
o2
o2
o2
o2
n1.53
v0
v0
v2
v2
v3
v4
v4
o16
o2
o2
o2
o2
o2
o2
o2
n1.4
v0
v0
v2
v3
v3
v3
v3
o2
o2
o2
o2
o2
o2
o2
n9.56
v0
v0
v2
v3
v3
v4
v4
o2
o2
o2
o2
o2
o2
o2
n0.24
v0
v0
v2
v3
v4
v4
v4
o2
o2
o2
o2
o2
o2
o2
n7.35
v0
v0
v3
v3
v3
v4
v4
o2
o2
o2
o2
o2
o2
o2
n1.04
v0
v0
v3
v3
v4
v4
v4
o2
o2
o2
o2
o2
o2
o2
n0.44
v0
v1
v1
v1
v1
v1
v1
o2
o2
o2
o2
o2
o2
o2
n9.79
v0
v1
v1
v1
v1
v1
v3
o2
o2
o2
o2
o2
o2
o2
n8.38
v0
v1
v1
v1
v1
v2
v4
o2
o2
o2
o2
o2
o2
o2
n3.06
v0
v1
v1
v1
v1
v3
v4
o2
o2
o2
o2
o2
o2
o2
n6.68
v0
v1
v1
v1
v2
v4
v4
o2
o2
o2
o2
o2
o2
o2
n8.29
v0
v1
v1
v2
v2
v2
v4
o2
o2
o2
o2
o2
o2
o2
n2.13
v0
v1
v1
v2
v2
v3
v3
o2
o2
o2
o2
o2
o2
o2
n3.86
v0
v1
v1
v2
v2
v4
v4
o16
o2
o2
o2
o2
o2
o2
o2
n5.43
v0
v1
v1
v2
v3
v3
v3
o2
o2
o2
o2
o2
o2
o2
n5.3
v0
v1
v1
v2
v3
v3
v4
o2
o2
o2
o2
o2
o2
o2
n0.24
v0
v1
v1
v2
v3
v4
v4
o2
o2
o2
o2
o2
o2
o2
n9.46
v0
v1
v1
v3
v3
v3
v3
o16
o2
o2
o2
o2
o2
o2
o2
n2.76
v0
v1
v1
v3
v3
v3
v4
o2
o2
o2
o2
o2
o2
o2
n3.02
v0
v1
v1
v3
v4
v4
v4
o2
o2
o2
o2
o2
o2
o2
n0.84
v0
v1
v1
v4
v4
v4
v4
o2
o2
o2
o2
o2
o2
o2
n6.92
v0
v1
v2
v2
v2
v2
v3
o16
o2
o2
o2
o2
o2
o2
o2
n6.67
v0
v1
v2
v2
v2
v2
v4
o2
o2
o2
o2
o2
o2
o2
n3.41
v0
v1
v2
v2
v2
v3
v4
o2
o2
o2
o2
o2
o2
o2
n2.21
v0
v1
v2
v2
v3
v3
v3
o2
o2
o2
o2
o2
o2
o2
n7.05
v0
v1
v2
v3
v3
v4
v4
o2
o2
o2
o2
o2
o2
o2
n1.31
v0
v1
v2
v3
v4
v4
v4
o2
o2
o2
o2
o2
o2
o2
n6.48
v0
v1
v3
v3
v4
v4
v4
o2
o2
o2
o2
o2
o2
o2
n7.64
v0
v1
v3
v4
v4
v4
v4
o2
o2
o2
o2
o2
o2
o2
n8.32
v0
v2
v2
v2
v2
v3
v4
o2
o2
o2
o2
o2
o2
o2
n2.51
v0
v2
v2
v2
v2
v4
v4
o2
o2
o2
o2
o2
o2
o2
n9.86
v0
v2
v2
v2
v3
v3
v4
o2
o2
o2
o2
o2
o2
o2
n1.58
v0
v2
v2
v2
v4
v4
v4
o2
o2
o2
o2
o2
o2
o2
n2.1
v0
v2
v2
v4
v4
v4
v4
o2
o2
o2
o2
o2
o2
o2
n4.57
v0
v2
v3
v3
v3
v4
v4
o16
o2
o2
o2
o2
o2
o2
o2
n9.65
v0
v2
v3
v3
v4
v4
v4
o2
o2
o2
o2
o2
o2
o2
n7.02
v0
v3
v3
v3
v3
v3
v4
o2
o2
o2
o2
o2
o2
o2
n9.1
v0
v3
v3
v3
v4
v4
v4
o2
o2
o2
o2
o2
o2
o2
n8.2
v0
v3
v3
v4
v4
v4
v4
o2
o2
o2
o2
o2
o2
o2
n2.45
v0
v3
v4
v4
v4
v4
v4
o2
o2
o2
o2
o2
o2
o2
n4.12
v1
v1
v1
v1
v1
v1
v4
o2
o2
o2
o2
o2
o2
o2
n7.04
v1
v1
v1
v1
v1
v2
v2
o2
o2
o2
o2
o2
o2
o2
n9.84
v1
v1
v1
v1
v1
v2
v4
o2
o2
o2
o2
o2
o2
o2
n8.7
v1
v1
v1
v1
v1
v3
v3
o2
o2
o2
o2
o2
o2
o2
n0.07
v1
v1
v1
v1
v2
v2
v2
o2
o2
o2
o2
o2
o2
o2
n9.59
v1
v1
v1
v1
v2
v3
v3
o2
o2
o2
o2
o2
o2
o2
n2.12
v1
v1
v1
v1
v2
v3
v4
o2
o2
o2
o2
o2
o2
o2
n7.27
v1
v1
v1
v1
v3
v3
v3
o2
o2
o2
o2
o2
o2
o2
n0.27
v1
v1
v1
v1
v3
v3
v4
o2
o2
o2
o2
o2
o2
o2
n6.62
v1
v1
v1
v1
v4
v4
v4
o2
o2
o2
o2
o2
o2
o2
n5.65
v1
v1
v1
v2
v2
v3
v3
o2
o2
o2
o2
o2
o2
o2
n1.22
v1
v1
v1
v2
v2
v3
v4
o2
o2
o2
o2
o2
o2
o2
n0.68
v1
v1
v1
v2
v2
v4
v4
o2
o2
o2
o2
o2
o2
o2
n5.58
v1
v1
v1
v2
v3
v3
v3
o2
o2
o2
o2
o2
o2
o2
n2.04
v1
v1
v1
v2
v4
v4
v4
o2
o2
o2
o2
o2
o2
o2
n4.96
v1
v1
v1
v3
v3
v3
v4
o2
o2
o2
o2
o2
o2
o2
n1.45
v1
v1
v2
v2
v2
v2
v2
o2
o2
o2
o2
o2
o2
o2
n4.24
v1
v1
v2
v2
v2
v2
v3
o2
o2
o2
o2
o2
o2
o2
n8.1
v1
v1
v2
v2
v2
v3
v3
o2
o2
o2
o2
o2
o2
o2
n2.47
v1
v1
v2
v2
v2
v3
v4
o2
o2
o2
o2
o2
o2
o2
n1.84
v1
v1
v2
v2
v2
v4
v4
o2
o2
o2
o2
o2
o2
o2
n4.6
v1
v1
v2
v2
v3
v3
v3
o2
o2
o2
o2
o2
o2
o2
n1.39
v1
v1
v2
v3
v3
v3
v3
o2
o2
o2
o2
o2
o2
o2
n6.96
v1
v1
v2
v3
v4
v4
v4
o2
o2
o2
o2
o2
o2
o2
n6.3
v1
v1
v2
v4
v4
v4
v4
o2
o2
o2
o2
o2
o2
o2
n8.13
v1
v1
v3
v3
v3
v3
v3
o2
o2
o2
o2
o2
o2
o2
n7
v1
v1
v3
v3
v3
v3
v4
o2
o2
o2
o2
o2
o2
o2
n1.64
v1
v1
v3
v3
v3
v4
v4
o16
o2
o2
o2
o2
o2
o2
o2
n1.89
v1
v1
v3
v3
v4
v4
v4
o2
o2
o2
o2
o2
o2
o2
n2.17
v1
v1
v3
v4
v4
v4
v4
o2
o2
o2
o2
o2
o2
o2
n5.5
v1
v1
v4
v4
v4
v4
v4
o16
o2
o2
o2
o2
o2
o2
o2
n1.78
v1
v2
v2
v2
v2
v2
v2
o2
o2
o2
o2
o2
o2
o2
n6.89
v1
v2
v2
v2
v2
v2
v3
o2
o2
o2
o2
o2
o2
o2
n7.66
v1
v2
v2
v2
v2
v2
v4
o2
o2
o2
o2
o2
o2
o2
n2.23
v1
v2
v2
v2
v2
v3
v4
o2
o2
o2
o2
o2
o2
o2
n8.08
v1
v2
v2
v2
v3
v3
v4
o2
o2
o2
o2
o2
o2
o2
n0.72
v1
v2
v2
v2
v3
v4
v4
o2
o2
o2
o2
o2
o2
o2
n8.05
v1
v2
v2
v2
v4
v4
v4
o2
o2
o2
o2
o2
o2
o2
n7.82
v1
v2
v2
v3
v3
v4
v4
o2
o2
o2
o2
o2
o2
o2
n1.2
v1
v2
v2
v4
v4
v4
v4
o2
o2
o2
o2
o2
o2
o2
n5.01
v1
v2
v3
v3
v3
v4
v4
o2
o2
o2
o2
o2
o2
o2
n9.54
v1
v2
v3
v4
v4
v4
v4
o2
o2
o2
o2
o2
o2
o2
n9.92
v1
v3
v3
v3
v3
v3
v3
o2
o2
o2
o2
o2
o2
o2
n7.6
v1
v3
v3
v3
v3
v4
v4
o2
o2
o2
o2
o2
o2
o2
n6.07
v1
v3
v3
v3
v4
v4
v4
o2
o2
o2
o2
o2
o2
o2
n2.49
v1
v4
v4
v4
v4
v4
v4
o2
o2
o2
o2
o2
o2
o2
n6.22
v2
v2
v2
v2
v2
v2
v2
o2
o2
o2
o2
o2
o2
o2
n6.58
v2
v2
v2
v2
v2
v3
v3
o16
o2
o2
o2
o2
o2
o2
o2
n8.41
v2
v2
v2
v2
v2
v3
v4
o2
o2
o2
o2
o2
o2
o2
n4.13
v2
v2
v2
v2
v3
v3
v3
o2
o2
o2
o2
o2
o2
o2
n8.71
v2
v2
v2
v2
v3
v4
v4
o2
o2
o2
o2
o2
o2
o2
n8.65
v2
v2
v2
v3
v3
v4
v4
o2
o2
o2
o2
o2
o2
o2
n9.75
v2
v2
v3
v3
v3
v4
v4
o2
o2
o2
o2
o2
o2
o2
n2.48
v2
v2
v3
v3
v4
v4
v4
o2
o2
o2
o2
o2
o2
o2
n9.19
v2
v2
v4
v4
v4
v4
v4
o2
o2
o2
o2
o2
o2
o2
n5.06
v2
v3
v3
v3
v3
v3
v3
o16
o2
o2
o2
o2
o2
o2
o2
n7.04
v2
v3
v3
v3
v3
v3
v4
o2
o2
o2
o2
o2
o2
o2
n1.6
v2
v3
v3
v3
v3
v4
v4
o2
o2
o2
o2
o2
o2
o2
n6.02
v2
v3
v3
v4
v4
v4
v4
o2
o2
o2
o2
o2
o2
o2
n8.64
v3
v3
v3
v3
v3
v3
v3
o2
o2
o2
o2
o2
o2
o2
n3.92
v3
v3
v3
v3
v3
v3
v4
o2
o2
o2
o2
o2
o2
o2
n7.99
v3
v3
v3
v3
v4
v4
v4
o2
o2
o2
o2
o2
o2
o2
n2.13
v3
v3
v3
v4
v4
v4
v4
o2
o2
o2
o2
o2
o2
o2
n5.84
v3
v4
v4
v4
v4
v4
v4
k4
5
12
18
24
J0 5
0 7.91
1 1.49
2 8.85
3 8.18
4 2.6
J1 5
0 5.77
1 8.09
2 0.08
3 9.32
4 2.87
J2 5
0 6.96
1 4.42
2 5.43
3 2.44
4 -2.36
J3 5
0 7.59
1 6.1
2 0.61
3 8.13
4 8.91
J4 2
1 0.17
2 2.85
J5 2
1 6.42
3 -8.23
J6 5
0 8.33
1 2.86
2 7.22
3 7.08
4 1.48
G0 5
0 9.62
1 5.22
2 -7.51
3 1.19
4 9.17
